SDVRP instances/custom_instances/p03_23_splitx10_0.vrp
NAME:p03_23_splitx10_
BEST_KNOWN: 0
COMMENT: 0
DIMENSION: 458
CAPACITY: 2000
EDGE_WEIGHT_FORMAT: FUNCTION
EDGE_WEIGHT_TYPE: EXACT_2D
NODE_COORD_SECTION
1 0.00000 0.00000
2 -45 5
3 -45 5
4 -45 5
5 -45 5
6 -10 -15
7 -10 -15
8 -10 -15
9 -10 -15
10 -10 -15
11 -10 -15
12 -10 -15
13 46 48
14 46 48
15 -43 30
16 -43 30
17 -43 30
18 -43 30
19 -43 30
20 -20 -43
21 -20 -43
22 -20 -43
23 -20 -43
24 18 -34
25 18 -34
26 18 -34
27 41 47
28 41 47
29 41 47
30 35 32
31 35 32
32 35 32
33 35 32
34 5 23
35 5 23
36 5 23
37 5 23
38 5 23
39 -50 14
40 -50 14
41 -50 14
42 -50 14
43 -50 50
44 -50 50
45 -50 50
46 -50 50
47 -50 50
48 -50 50
49 -50 50
50 -50 50
51 -4 48
52 -4 48
53 -4 48
54 -5 -34
55 -5 -34
56 -5 -34
57 -5 -34
58 -19 -48
59 -19 -48
60 -19 -48
61 -19 -48
62 -19 -48
63 -19 -48
64 -19 -48
65 20 -1
66 20 -1
67 20 -1
68 20 -1
69 -11 -49
70 -11 -49
71 -11 -49
72 -11 -49
73 -50 -3
74 -50 -3
75 -50 -3
76 -50 -3
77 -50 -3
78 -50 -3
79 25 -22
80 25 -22
81 25 -22
82 45 -46
83 45 -46
84 45 -46
85 45 -46
86 45 -46
87 45 -46
88 45 -46
89 -48 -29
90 -48 -29
91 -48 -29
92 -48 -29
93 -48 -29
94 -48 -29
95 20 -46
96 20 -46
97 20 -46
98 20 -46
99 20 -46
100 20 -46
101 -46 24
102 -46 24
103 -46 24
104 -46 24
105 -46 24
106 -46 24
107 -1 10
108 -1 10
109 -1 10
110 -1 10
111 -1 10
112 -1 10
113 -21 42
114 -21 42
115 -21 42
116 -21 42
117 -17 -25
118 -17 -25
119 -17 -25
120 -17 -25
121 -17 -25
122 -17 8
123 -17 8
124 -28 21
125 -28 21
126 -28 21
127 -28 21
128 36 7
129 36 7
130 36 7
131 3 -19
132 3 -19
133 3 -19
134 3 -19
135 3 -19
136 8 -48
137 8 -48
138 8 -48
139 8 -48
140 8 -48
141 28 -40
142 28 -40
143 28 -40
144 28 -40
145 22 11
146 22 11
147 22 11
148 22 11
149 -10 12
150 -10 12
151 -10 12
152 -10 12
153 -33 21
154 -33 21
155 -33 21
156 16 48
157 16 48
158 16 48
159 16 48
160 -12 -20
161 -12 -20
162 -12 -20
163 -12 -20
164 -12 -20
165 -41 47
166 -41 47
167 -41 47
168 -41 47
169 -41 47
170 -41 47
171 -41 47
172 -44 -46
173 -44 -46
174 -44 -46
175 -44 -46
176 -44 -46
177 -44 -46
178 -44 -46
179 -44 -46
180 2 19
181 2 19
182 2 19
183 2 19
184 37 -3
185 37 -3
186 37 -3
187 21 -49
188 21 -49
189 21 -49
190 21 -49
191 21 -49
192 21 -49
193 -28 19
194 -28 19
195 -28 19
196 -28 19
197 -28 19
198 16 -28
199 16 -28
200 16 -28
201 -5 -13
202 -5 -13
203 -5 -13
204 -5 -13
205 -5 -13
206 -5 -13
207 -48 -3
208 -48 -3
209 -48 -3
210 -41 17
211 -41 17
212 -41 17
213 -47 42
214 -47 42
215 -47 42
216 -47 42
217 -47 42
218 -37 1
219 -37 1
220 -39 -43
221 -39 -43
222 -39 -43
223 -24 -9
224 -24 -9
225 -24 -9
226 -24 -9
227 -24 -9
228 32 -8
229 32 -8
230 32 -8
231 32 -8
232 32 -8
233 5 -28
234 5 -28
235 25 17
236 25 17
237 25 17
238 48 10
239 48 10
240 48 10
241 48 10
242 48 10
243 48 10
244 20 1
245 20 1
246 20 1
247 20 1
248 20 1
249 20 1
250 20 1
251 7 21
252 7 21
253 7 21
254 47 -23
255 47 -23
256 47 -23
257 47 -23
258 47 -23
259 15 -6
260 15 -6
261 15 -6
262 15 -6
263 41 -26
264 41 -26
265 41 -26
266 41 -26
267 -4 -33
268 -4 -33
269 -4 -33
270 -4 -33
271 -4 -33
272 30 -4
273 30 -4
274 30 -4
275 30 -4
276 30 -4
277 30 -4
278 30 -4
279 31 -38
280 31 -38
281 31 -38
282 31 -38
283 31 -38
284 -26 -31
285 -26 -31
286 -26 -31
287 -33 15
288 -33 15
289 -33 15
290 -50 49
291 -50 49
292 -50 49
293 -50 49
294 -23 39
295 -23 39
296 -23 39
297 -23 39
298 16 -11
299 16 -11
300 -47 -43
301 -47 -43
302 -47 -43
303 -47 -43
304 -47 -43
305 -47 -43
306 -47 -43
307 30 -17
308 30 -17
309 30 -17
310 30 -17
311 30 -17
312 30 -17
313 15 39
314 15 39
315 15 39
316 15 39
317 15 39
318 4 21
319 4 21
320 4 21
321 8 36
322 8 36
323 8 36
324 8 36
325 1 -24
326 1 -24
327 1 -24
328 1 -24
329 1 -24
330 45 -7
331 45 -7
332 45 -7
333 45 -7
334 20 1
335 20 1
336 20 1
337 20 1
338 20 1
339 20 1
340 34 12
341 34 12
342 34 12
343 30 -4
344 30 -4
345 30 -4
346 30 -4
347 30 -4
348 8 34
349 8 34
350 8 34
351 -33 35
352 -33 35
353 -33 35
354 -33 35
355 -33 35
356 -33 35
357 -41 -20
358 -41 -20
359 -41 -20
360 -41 -20
361 -41 -20
362 -41 -20
363 -41 -20
364 -41 7
365 -41 7
366 -41 7
367 -41 7
368 -41 7
369 -49 6
370 -49 6
371 -49 6
372 -49 6
373 -49 6
374 -49 6
375 -49 6
376 -49 6
377 1 48
378 1 48
379 1 48
380 1 48
381 1 48
382 22 37
383 22 37
384 22 37
385 22 37
386 22 37
387 -43 16
388 -43 16
389 -43 16
390 49 14
391 49 14
392 49 14
393 49 14
394 49 14
395 49 14
396 49 14
397 -26 4
398 -26 4
399 -26 4
400 -23 31
401 -23 31
402 -23 31
403 -23 31
404 -23 31
405 6 34
406 6 34
407 6 34
408 6 34
409 10 -5
410 10 -5
411 10 -5
412 -36 1
413 -36 1
414 -36 1
415 -36 1
416 -36 1
417 -36 1
418 -13 33
419 -13 33
420 -13 33
421 -13 33
422 35 29
423 35 29
424 35 29
425 -9 -12
426 -9 -12
427 -9 -12
428 -9 -12
429 -9 -12
430 -9 -12
431 -9 -12
432 -9 -12
433 13 41
434 13 41
435 13 41
436 13 41
437 -49 -8
438 -49 -8
439 3 -18
440 3 -18
441 3 -18
442 3 -18
443 3 -18
444 3 -18
445 3 -18
446 -26 -45
447 1 -14
448 1 -14
449 1 -14
450 1 -14
451 1 -14
452 1 -14
453 -28 -44
454 -28 -44
455 -28 -44
456 -28 -44
457 -28 -44
458 -28 -44
DEMAND_SECTION
1 0
2 400
3 20
4 20
5 10
6 400
7 400
8 100
9 20
10 20
11 20
12 20
13 400
14 200
15 400
16 20
17 20
18 20
19 20
20 200
21 20
22 20
23 20
24 400
25 200
26 20
27 400
28 200
29 20
30 400
31 100
32 20
33 10
34 400
35 400
36 20
37 20
38 20
39 200
40 20
41 20
42 20
43 400
44 400
45 100
46 20
47 20
48 20
49 20
50 10
51 400
52 100
53 20
54 200
55 20
56 20
57 10
58 400
59 200
60 100
61 20
62 20
63 20
64 10
65 200
66 20
67 20
68 20
69 400
70 200
71 20
72 10
73 400
74 400
75 20
76 20
77 20
78 20
79 400
80 100
81 10
82 400
83 200
84 100
85 20
86 20
87 20
88 10
89 400
90 400
91 20
92 20
93 20
94 10
95 400
96 400
97 100
98 20
99 20
100 10
101 400
102 100
103 20
104 20
105 20
106 20
107 400
108 100
109 20
110 20
111 20
112 10
113 200
114 20
115 20
116 20
117 400
118 200
119 100
120 20
121 20
122 400
123 10
124 400
125 400
126 100
127 10
128 400
129 400
130 20
131 400
132 400
133 100
134 20
135 20
136 400
137 400
138 20
139 20
140 10
141 400
142 400
143 100
144 20
145 400
146 200
147 100
148 20
149 400
150 100
151 20
152 10
153 400
154 100
155 20
156 400
157 200
158 20
159 10
160 400
161 400
162 100
163 20
164 10
165 400
166 400
167 100
168 20
169 20
170 20
171 10
172 400
173 400
174 100
175 20
176 20
177 20
178 20
179 10
180 400
181 200
182 100
183 10
184 200
185 100
186 10
187 400
188 400
189 20
190 20
191 20
192 20
193 400
194 200
195 100
196 20
197 20
198 400
199 100
200 10
201 400
202 400
203 100
204 20
205 20
206 20
207 400
208 200
209 10
210 400
211 200
212 10
213 400
214 100
215 20
216 20
217 20
218 400
219 10
220 400
221 400
222 200
223 400
224 200
225 100
226 20
227 20
228 400
229 400
230 20
231 20
232 10
233 200
234 100
235 400
236 200
237 20
238 400
239 200
240 20
241 20
242 20
243 20
244 400
245 100
246 20
247 20
248 20
249 20
250 10
251 400
252 200
253 100
254 200
255 100
256 20
257 20
258 20
259 400
260 400
261 20
262 10
263 400
264 200
265 20
266 20
267 400
268 400
269 20
270 20
271 20
272 400
273 400
274 100
275 20
276 20
277 20
278 20
279 200
280 100
281 20
282 20
283 10
284 400
285 200
286 20
287 200
288 100
289 10
290 200
291 20
292 20
293 10
294 200
295 100
296 20
297 10
298 400
299 20
300 400
301 400
302 100
303 20
304 20
305 20
306 10
307 400
308 400
309 20
310 20
311 20
312 20
313 400
314 20
315 20
316 20
317 10
318 400
319 100
320 20
321 400
322 200
323 20
324 10
325 200
326 20
327 20
328 20
329 20
330 400
331 200
332 100
333 20
334 400
335 200
336 20
337 20
338 20
339 10
340 400
341 200
342 10
343 200
344 20
345 20
346 20
347 10
348 200
349 100
350 20
351 400
352 200
353 20
354 20
355 20
356 20
357 400
358 100
359 20
360 20
361 20
362 20
363 10
364 400
365 100
366 20
367 20
368 10
369 400
370 400
371 100
372 20
373 20
374 20
375 20
376 10
377 400
378 400
379 100
380 20
381 10
382 400
383 20
384 20
385 20
386 10
387 200
388 100
389 10
390 400
391 400
392 100
393 20
394 20
395 20
396 10
397 200
398 100
399 10
400 400
401 100
402 20
403 20
404 20
405 200
406 100
407 20
408 10
409 400
410 400
411 100
412 400
413 400
414 20
415 20
416 20
417 10
418 400
419 100
420 20
421 20
422 400
423 100
424 20
425 400
426 200
427 100
428 20
429 20
430 20
431 20
432 10
433 400
434 200
435 100
436 20
437 400
438 200
439 400
440 200
441 100
442 20
443 20
444 20
445 20
446 400
447 400
448 200
449 100
450 20
451 20
452 10
453 400
454 200
455 20
456 20
457 20
458 10
DEPOT_SECTION
1
-1
EOF