SDVRP instances/custom_instances/p03_23_splitx10_0.sol
457 -1 3 2 4 369 368 374 370 373 371 372 375 367 365 364 366 363 -8 10 9 11 456 452 457 455 454 453 445 63 59 57 61 60 62 58 21 20 22 -19 68 69 71 70 139 138 137 136 135 24 198 -35 36 37 349 347 348 433 434 435 432 321 323 320 322 404 406 407 -65 67 66 64 245 244 243 333 246 336 247 338 248 249 334 108 109 111 110 106 -79 80 78 308 306 311 307 298 297 -89 90 91 88 93 92 301 305 304 302 300 303 299 -96 94 98 95 97 99 186 189 188 187 190 191 -107 317 33 34 250 252 251 -121 122 396 398 397 218 217 412 416 411 415 414 413 -126 15 17 18 16 216 215 214 212 213 292 289 290 291 44 45 48 46 43 47 49 42 149 -131 133 130 132 134 443 438 440 441 444 442 439 -145 144 339 234 235 179 -147 146 340 341 394 395 390 392 389 391 393 240 242 241 237 238 239 -148 125 124 123 192 194 193 -150 151 402 401 399 400 403 352 355 351 353 354 295 294 296 293 115 113 112 114 420 419 418 417 -152 103 105 102 101 104 100 387 210 211 209 286 288 287 -160 7 6 5 427 429 425 424 430 428 -162 161 159 163 117 119 116 120 118 284 285 283 431 426 -173 172 174 176 175 171 178 177 221 219 220 -182 181 180 51 50 52 380 376 378 379 377 405 319 318 -195 196 153 154 14 164 165 169 168 167 166 170 350 -197 199 23 25 141 140 143 142 278 -202 203 204 200 205 201 446 447 449 448 451 450 -206 207 208 76 73 75 77 72 74 40 38 41 39 388 386 -223 224 225 226 222 362 361 360 357 359 358 356 437 436 -228 230 231 227 229 273 272 342 276 275 271 -233 232 54 55 56 53 266 270 268 269 267 326 324 327 325 328 -236 422 30 13 12 26 28 27 381 383 385 382 384 -258 260 261 259 409 410 408 -280 282 281 279 84 81 82 87 85 83 86 254 253 256 257 255 262 263 265 264 310 309 -312 313 316 315 314 158 155 156 157 29 32 31 421 423 -337 335 127 129 128 332 329 330 331 184 185 183 344 343 346 274 277 345 0 





OBJ=
3139.469
BEST_KNOWN=
0.000